WARNING: for repeatability, setting FPU to use double precision
============================[ Problem Statistics ]=============================
|                                                                             |
|  Number of variables:           100                                         |
|  Number of clauses:             449                                         |
|  Parse time:                   0.00 s                                       |
|  Eliminated clauses:           0.00 Mb                                      |
|  Simplification time:          0.00 s                                       |
|                                                                             |
============================[ Search Statistics ]==============================
| Conflicts |          ORIGINAL         |          LEARNT          | Progress |
|           |    Vars  Clauses Literals |    Limit  Clauses Lit/Cl |          |
===============================================================================
|       100 |      97      443     1342 |      162      100      6 |  0.020 % |
===============================================================================
restarts              : 2
conflicts             : 197            (182239 /sec)
decisions             : 245            (0.00 % random) (226642 /sec)
propagations          : 4122           (3813136 /sec)
conflict literals     : 1105           (17.84 % deleted)
Memory used           : 13.00 MB
CPU time              : 0.001081 s

SATISFIABLE
